c ren 1 -> 1
c ren 2 -> 2
c ren 3 -> 3
c ren 4 -> 4
c ren 6 -> 5
c ren 7 -> 6
c ren 8 -> 7
c ren 9 -> 8
c ren 10 -> 9
c ren 11 -> 10
c ren 12 -> 11
c ren 13 -> 12
c ren 14 -> 13
c ren 15 -> 14
c ren 17 -> 15
c ren 18 -> 16
c ren 19 -> 17
c ren 20 -> 18
c ren 21 -> 19
c ren 22 -> 20
c ren 23 -> 21
c ren 24 -> 22
c ren 25 -> 23
c ren 26 -> 24
c ren 28 -> 25
c ren 29 -> 26
c ren 32 -> 27
c ren 33 -> 28
c ren 37 -> 29
c ren 40 -> 30
c ren 45 -> 31
c ren 61 -> 32
p cnf 32 89
a 1 2 3 4 5 6 7 8 9 10 11 12 13 14 15 16 17 18 19 20 21 0
d 22 15 16 0
d 23 5 0
d 24 17 18 0
d 25 19 20 0
d 26 12 13 0
e 27 28 29 30 31 32 0
-1 -27 0
-2 -27 0
1 2 27 0
-15 -27 28 0
15 27 28 0
-15 27 -28 0
15 -27 -28 0
-3 -16 -29 0
3 -4 -16 29 0
3 -4 16 -29 0
4 16 29 0
4 -16 -29 0
-3 16 29 0
29 32 0
-2 6 7 -19 20 21 -28 -29 -30 -31 -32 0
-17 -27 30 0
17 27 30 0
-17 27 -30 0
17 -27 -30 0
30 32 0
6 7 -8 -19 -20 -21 -27 -28 -29 -30 -31 -32 0
-3 -18 -31 0
3 4 -18 31 0
3 4 18 -31 0
-4 18 31 0
1 2 3 4 5 -6 23 32 0
31 32 0
-1 -6 19 20 21 -28 -29 -30 -31 -32 0
1 2 3 4 5 7 -8 23 32 0
-7 8 19 20 -21 -27 -28 -29 -30 -31 -32 0
-2 -6 19 20 21 -28 -29 -30 -31 -32 0
6 7 8 -19 20 -21 -27 -28 -29 -30 -31 -32 0
-6 -8 19 -20 -21 -27 -28 -29 -30 -31 -32 0
6 7 8 -19 20 21 27 -28 -29 -30 -31 -32 0
-1 -7 19 20 21 -28 -29 -30 -31 -32 0
-7 -8 19 -20 -21 -27 -28 -29 -30 -31 -32 0
1 2 3 4 5 6 7 8 9 -10 32 0
3 4 -7 -23 -25 32 0
1 2 3 4 5 6 7 -8 25 32 0
28 32 0
-7 8 19 20 21 27 -28 -29 -30 -31 -32 0
-3 18 31 0
-3 6 -7 -23 -24 32 0
3 4 -5 24 -27 32 0
6 8 -9 -23 -24 27 32 0
6 -7 -23 -24 27 32 0
-3 -5 -24 32 0
6 8 10 -11 -23 -24 27 32 0
6 8 10 14 -23 -24 -26 27 32 0
6 8 10 12 -13 -23 -24 27 32 0
-22 27 32 0
4 -22 32 0
3 4 8 -23 -25 32 0
-4 -18 -31 0
-4 -5 -24 32 0
-3 6 8 -9 -23 -24 32 0
-4 6 8 -9 -23 -24 32 0
3 4 6 -7 24 -27 32 0
-3 6 8 10 14 -23 -24 -26 32 0
-3 -22 32 0
-4 6 -7 -23 -24 32 0
-5 -24 27 32 0
-3 6 8 10 -11 -23 -24 32 0
-1 3 4 -23 -25 32 0
-2 -7 19 20 21 -28 -29 -30 -31 -32 0
-2 3 4 -23 -25 32 0
-1 6 7 -19 20 21 -28 -29 -30 -31 -32 0
1 2 3 4 5 7 9 10 11 -12 23 32 0
3 4 5 6 8 10 -11 23 -27 32 0
-4 6 8 10 12 -13 -23 -24 32 0
-4 6 8 10 -11 -23 -24 32 0
3 4 5 6 8 10 12 -13 23 -27 32 0
1 2 3 4 5 6 7 8 9 11 13 -14 26 32 0
-1 3 4 6 7 8 9 -23 32 0
-6 8 19 20 -21 -27 -28 -29 -30 -31 -32 0
3 4 6 8 -9 24 -27 32 0
3 -4 22 -27 32 0
3 4 5 6 8 14 23 -27 32 0
3 4 -6 -23 -25 32 0
-2 3 4 6 7 8 9 -23 32 0
1 2 3 4 5 7 9 10 11 13 -14 23 32 0
3 4 6 8 10 24 -27 32 0
-4 6 8 10 14 -23 -24 -26 32 0
-3 6 8 10 12 -13 -23 -24 32 0
3 4 6 7 8 9 10 -23 32 0
-6 8 19 20 21 27 -28 -29 -30 -31 -32 0
3 4 5 6 -7 23 -27 32 0
3 4 5 6 8 -9 23 -27 32 0
3 4 5 6 7 8 9 10 11 12 13 14 26 -27 32 0
